100
32
20
4
27
1
1
5
4
9
21
29
5
13
1
26
7
19
22
7
17
1
17
17
2
20
19
7
19
19
6
19
7
19
7
21
20
8
7
1
1
8
9
8
9
17
9
1
12
2
12
1
12
25
2
2
11
14
8
8
3
11
10
8
2
16
4
8
1
18
10
2
4
8
1
8
16
3
8
12
10
1
13
1
12
11
1
1
1
1
13
2
2
1
2
6
1
2
11
4
4
1